nNurses = 141;
nHours = 31;
minHours = 3;
maxHours = 19;
maxConsec = 17;
maxPresence = 28;
demand = [19, 22, 23, 19, 21, 24, 23, 18, 23, 23, 18, 17, 15, 12, 9, 14, 16, 18, 20, 18, 18, 22, 23, 24, 25, 20, 15, 15, 11, 7, 5];
